9
80
29
49
75
7
69
64
92
20
25
41
93
70
38
50
54
13
34
76
46
99
63
66
22
47
53
58
33
60
72
79
6
57
39
68
10
15
21
87
67
2
42
0
31
4
71
55
16
30
5
12
24
85
83
81
48
74
77
40
59
11
65
95
96
62
27
82
43
37
86
91
84
56
88
23
32
17
98
61
19
51
44
35
52
18
3
1
89
97
26
8
45
73
94
14
36
28
90
78
